\ SCIP STATISTICS
\   Problem name     : beavma
\   Variables        : 390 (195 binary, 0 integer, 0 implicit integer, 195 continuous)
\   Constraints      : 372
Minimize
 Obj: +1800 y....018 +6050 y....022 +6050 y....023 +10000 y....024 +10000 y....025 +3500 y....026 +3500 y....027
      +4000 y....028 +4000 y....029 +2400 y....030 +2400 y....031 +2100 y....032 +2100 y....033 +6500 y....034
      +6500 y....035 +11910 y....036 +4100 y....037 +4100 y....038 +15900 y....039 +15900 y....040 +2000 y....041
      +2000 y....042 +6840 y....043 +8600 y....044 +8600 y....045 +2280 y....046 +2280 y....047 +1000 y....048
      +1000 y....049 +3250 y....050 +3250 y....051 +4950 y....052 +4950 y....053 +4500 y....054 +4500 y....055
      +15200 y....056 +15200 y....057 +2400 y....058 +2400 y....059 +3720 y....060 +19450 y....061 +19450 y....062
      +8200 y....063 +8200 y....064 +3650 y....065 +3650 y....066 +2350 y....067 +2350 y....068 +6900 y....069
      +6900 y....070 +12100 y....071 +12100 y....072 +7420 y....073 +7420 y....074 +6425 y....075 +6425 y....076
      +5760 y....077 +5760 y....078 +3840 y....079 +3840 y....080 +1200 y....082 +1000 y....084 +1800 y....086
      +8280 y....087 +8280 y....088 +3120 y....089 +3120 y....090 +5720 y....091 +5720 y....092 +1890 y....093
      +1890 y....094 +2720 y....095 +2720 y....096 +1100 y....097 +1100 y....098 +3000 y....099 +3000 y....100
      +8495 y....101 +8495 y....102 +4350 y....103 +4350 y....104 +2605 y....105 +2605 y....106 +6530 y....107
      +6530 y....108 +2400 y....109 +2400 y....110 +2880 y....111 +2880 y....112 +1740 y....113 +1740 y....114
      +1200 y....115 +3000 y....117 +1500 y....119 +1200 y....121 +2500 y....123 +2500 y....125 +3000 y....127
      +3000 y....129 +1800 y....131 +1800 y....133 +2000 y....135 +2000 y....137 +6600 y....138 +6600 y....139
      +7150 y....140 +7150 y....141 +8000 y....142 +9440 y....143 +9440 y....144 +7715 y....145 +7715 y....146
      +4130 y....147 +4130 y....148 +2135 y....149 +1485 y....150 +10200 y....151 +9150 y....154 +9150 y....155
      +7925 y....156 +7925 y....157 +9400 y....158 +10800 y....159 +10800 y....160 +2040 y....161 +2040 y....162
      +9555 y....163 +9555 y....164 +3290 y....165 +3290 y....166 +1230 y....167 +1230 y....168 +2900 y....169
      +2900 y....170 +5600 y....171 +6810 y....176 +6810 y....177 +3170 y....178 +3170 y....179 +1500 y....180
      +1500 y....181 +6500 y....182 +2605 y....183 +2605 y....184 +8790 y....185 +8790 y....186 +6700 y....187
      +1485 y....191 +2135 y....192 +1200 y....193 +1000 y....194 +1800 y....195 +0.7 x....194 +2.5 x....001
      +0.9 x....002 +0.9 x....003 +2.8 x....004 +2.8 x....005 +1.2 x....006 +1.2 x....007 +0.8 x....008
      +3.1 x....009 +1.8 x....010 +1.2 x....011 +0.1 x....012 +3.3 x....013 +1.6 x....014 +2.8 x....015
      +2.8 x....016 +1.7 x....017 +1.3 x....018 +2.3 x....019 +1.1 x....020 +1.1 x....021 +1 x....022
      +1.2 x....023 +1.8 x....024 +1.8 x....025 +0.6 x....026 +0.8 x....027 +0.9 x....028 +0.9 x....029
      +1.4 x....030 +1.4 x....031 +0.7 x....032 +0.7 x....033 +0.9 x....034 +0.9 x....035 +1.1 x....036
      +1.4 x....037 +1.4 x....038 +1.9 x....039 +1.9 x....040 +0.7 x....041 +0.9 x....042 +0.7 x....043
      +2.1 x....044 +2.4 x....045 +0.7 x....046 +0.7 x....047 +0.4 x....048 +0.4 x....049 +1.1 x....050
      +1.1 x....051 +1.6 x....052 +1.6 x....053 +1.4 x....054 +1.4 x....055 +2.5 x....056 +2.5 x....057
      +0.9 x....058 +1 x....059 +4.2 x....060 +2 x....061 +2 x....062 +1.4 x....063 +2.3 x....064 +1.3 x....065
      +1.3 x....066 +0.8 x....067 +0.8 x....068 +2 x....069 +2 x....070 +2.4 x....071 +2.4 x....072 +2.2 x....073
      +2.2 x....074 +1.6 x....075 +1.6 x....076 +1.3 x....077 +1.3 x....078 +1.1 x....079 +1.1 x....080
      +0.7 x....081 +0.5 x....082 +0.9 x....083 +0.7 x....084 +0.5 x....085 +0.4 x....086 +3 x....087
      +3 x....088 +0.9 x....089 +0.9 x....090 +1.5 x....091 +0.9 x....092 +1.1 x....093 +1.1 x....094
      +0.7 x....095 +0.7 x....096 +0.4 x....097 +0.4 x....098 +0.8 x....099 +0.8 x....100 +1.4 x....101
      +1.4 x....102 +1.5 x....103 +1.5 x....104 +1.3 x....105 +1.3 x....106 +1.6 x....107 +1.6 x....108
      +0.8 x....109 +0.8 x....110 +0.8 x....111 +0.8 x....112 +1 x....113 +1 x....114 +1 x....115 +2.4 x....116
      +1.8 x....117 +1.4 x....118 +1 x....119 +1.3 x....120 +0.8 x....121 +2.3 x....122 +1.6 x....123
      +2.3 x....124 +1.6 x....125 +3.2 x....126 +2.6 x....127 +3.2 x....128 +2.6 x....129 +0.9 x....130
      +0.6 x....131 +0.9 x....132 +0.6 x....133 +1.8 x....134 +1.3 x....135 +1.8 x....136 +1.3 x....137
      +1.1 x....138 +1.3 x....139 +1.1 x....140 +1.1 x....141 +1.8 x....142 +2.6 x....143 +2.6 x....144
      +1.8 x....145 +1.8 x....146 +0.9 x....147 +0.9 x....148 +0.8 x....149 +0.5 x....150 +1 x....151
      +2.5 x....152 +1.6 x....153 +2.5 x....154 +2.5 x....155 +2.2 x....156 +2.2 x....157 +1.1 x....158
      +1.2 x....159 +1.2 x....160 +1.6 x....161 +1.6 x....162 +2.3 x....163 +2.3 x....164 +0.9 x....165
      +0.9 x....166 +0.7 x....167 +0.7 x....168 +1 x....169 +1 x....170 +1.2 x....171 +0.9 x....172 +1 x....173
      +1 x....174 +1.3 x....175 +1.6 x....176 +1.6 x....177 +0.9 x....178 +0.9 x....179 +1.1 x....180
      +1.1 x....181 +1.1 x....182 +0.7 x....183 +0.7 x....184 +3.2 x....185 +3.2 x....186 +0.7 x....187
      +0.5 x....191 +0.8 x....192 +0.5 x....193 +0.4 x....195
Subject to
 CNS...01: +1 x....001 +1 x....009 -1 x....188 = +0
 CNS...02: -1 x....001 +1 x....002 -1 x....003 +1 x....019 = +0
 CNS...03: -1 x....019 +1 x....020 -1 x....021 +1 x....037 -1 x....038 = -66
 CNS...04: -1 x....002 +1 x....003 -1 x....004 +1 x....005 +1 x....043 = +0
 CNS...05: -1 x....037 +1 x....038 +1 x....039 -1 x....040 = -100
 CNS...06: -1 x....020 +1 x....021 +1 x....022 -1 x....023 = -84
 CNS...07: -1 x....022 +1 x....023 +1 x....024 -1 x....025 = -88
 CNS...08: -1 x....024 +1 x....025 +1 x....026 -1 x....027 = -56
 CNS...09: -1 x....026 +1 x....027 +1 x....028 -1 x....029 +1 x....054 -1 x....055 = -110
 CNS...10: -1 x....028 +1 x....029 +1 x....030 -1 x....031 = -70
 CNS...11: -1 x....030 +1 x....031 +1 x....032 -1 x....033 = -256
 CNS...12: -1 x....032 +1 x....033 -1 x....034 +1 x....035 = -2136
 CNS...13: +1 x....034 -1 x....035 -1 x....036 = -127
 CNS...14: -1 x....009 -1 x....010 +1 x....036 = +0
 CNS...15: -1 x....039 +1 x....040 +1 x....041 -1 x....042 -1 x....043 = -70
 CNS...16: -1 x....061 +1 x....062 +1 x....063 -1 x....064 = -65
 CNS...17: -1 x....041 +1 x....042 +1 x....044 -1 x....045 +1 x....061 -1 x....062 = -225
 CNS...18: -1 x....063 +1 x....064 +1 x....065 -1 x....066 = -138
 CNS...19: -1 x....065 +1 x....066 +1 x....067 -1 x....068 = -228
 CNS...20: -1 x....067 +1 x....068 +1 x....069 -1 x....070 = -680
 CNS...21: -1 x....069 +1 x....070 -1 x....071 +1 x....072 -1 x....073 +1 x....074 = -227
 CNS...22: -1 x....048 +1 x....049 -1 x....050 +1 x....051 -1 x....056 +1 x....057 +1 x....071 -1 x....072
  = -73
 CNS...23: -1 x....046 +1 x....047 +1 x....048 -1 x....049 = -263
 CNS...24: -1 x....044 +1 x....045 +1 x....046 -1 x....047 = -321
 CNS...25: +1 x....052 -1 x....053 -1 x....054 +1 x....055 = -3
 CNS...26: +1 x....050 -1 x....051 -1 x....052 +1 x....053 = -131
 CNS...27: +1 x....058 -1 x....059 -1 x....060 = -86
 CNS...28: +1 x....056 -1 x....057 -1 x....058 +1 x....059 +1 x....156 -1 x....157 = -11
 CNS...29: +1 x....154 -1 x....155 -1 x....156 +1 x....157 = -40
 CNS...30: +1 x....010 -1 x....011 +1 x....060 = +0
 CNS...31: +1 x....004 -1 x....005 -1 x....006 +1 x....085 +1 x....086 -1 x....195 = +0
 CNS...32: +1 x....083 +1 x....084 -1 x....085 -1 x....086 -1 x....194 +1 x....195 = -46
 CNS...33: +1 x....081 +1 x....082 -1 x....083 -1 x....084 -1 x....193 +1 x....194 = -832
 CNS...34: +1 x....079 -1 x....080 -1 x....081 -1 x....082 +1 x....101 -1 x....102 +1 x....193 = -29
 CNS...35: +1 x....077 -1 x....078 -1 x....079 +1 x....080 = -63
 CNS...36: -1 x....075 +1 x....076 -1 x....077 +1 x....078 -1 x....087 +1 x....088 = -270
 CNS...37: +1 x....073 -1 x....074 +1 x....075 -1 x....076 = -119
 CNS...38: +1 x....099 -1 x....100 -1 x....101 +1 x....102 = -89
 CNS...39: +1 x....097 -1 x....098 -1 x....099 +1 x....100 = -552
 CNS...40: +1 x....095 -1 x....096 -1 x....097 +1 x....098 = -94
 CNS...41: +1 x....093 -1 x....094 -1 x....095 +1 x....096 = -85
 CNS...42: -1 x....091 +1 x....092 -1 x....093 +1 x....094 = -139
 CNS...43: +1 x....089 -1 x....090 +1 x....091 -1 x....092 = -480
 CNS...44: +1 x....087 -1 x....088 -1 x....089 +1 x....090 -1 x....103 +1 x....104 = -490
 CNS...45: +1 x....103 -1 x....104 -1 x....105 +1 x....106 = -219
 CNS...46: +1 x....105 -1 x....106 -1 x....107 +1 x....108 -1 x....143 +1 x....144 = -175
 CNS...47: +1 x....107 -1 x....108 -1 x....109 +1 x....110 = -374
 CNS...48: +1 x....109 -1 x....110 -1 x....111 +1 x....112 = -265
 CNS...49: +1 x....111 -1 x....112 -1 x....113 +1 x....114 = -51
 CNS...50: +1 x....113 -1 x....114 -1 x....115 = -374
 CNS...51: +1 x....115 -1 x....116 -1 x....117 = -259
 CNS...52: +1 x....116 +1 x....117 -1 x....118 -1 x....119 -1 x....122 -1 x....123 +1 x....124 +1 x....125
  = -203
 CNS...53: +1 x....122 +1 x....123 -1 x....124 -1 x....125 -1 x....126 -1 x....127 +1 x....128 +1 x....129
  = -306
 CNS...54: +1 x....126 +1 x....127 -1 x....128 -1 x....129 -1 x....130 -1 x....131 +1 x....132 +1 x....133
  = -480
 CNS...55: +1 x....130 +1 x....131 -1 x....132 -1 x....133 -1 x....134 -1 x....135 +1 x....136 +1 x....137
  = -431
 CNS...56: +1 x....134 +1 x....135 -1 x....136 -1 x....137 -1 x....138 +1 x....139 = -315
 CNS...57: +1 x....138 -1 x....139 -1 x....140 +1 x....141 = -200
 CNS...58: +1 x....140 -1 x....141 -1 x....142 = -24
 CNS...59: +1 x....006 -1 x....007 +1 x....142 = +0
 CNS...60: +1 x....007 -1 x....008 +1 x....017 +1 x....018 = +0
 CNS...61: +1 x....008 -1 x....190 = +0
 CNS...62: +1 x....015 -1 x....016 -1 x....017 -1 x....018 +1 x....120 +1 x....121 = -83
 CNS...63: +1 x....118 +1 x....119 -1 x....120 -1 x....121 = -205
 CNS...64: +1 x....143 -1 x....144 -1 x....145 +1 x....146 = -100
 CNS...65: +1 x....145 -1 x....146 -1 x....147 +1 x....148 = -124
 CNS...66: +1 x....147 -1 x....148 -1 x....149 +1 x....192 = -90
 CNS...67: +1 x....149 -1 x....150 +1 x....191 -1 x....192 = +0
 CNS...68: +1 x....150 -1 x....151 -1 x....154 +1 x....155 -1 x....191 = -40
 CNS...69: +1 x....151 -1 x....152 +1 x....187 = +0
 CNS...70: +1 x....185 -1 x....186 -1 x....187 = -72
 CNS...71: -1 x....183 +1 x....184 -1 x....185 +1 x....186 = -149
 CNS...72: -1 x....180 +1 x....181 +1 x....183 -1 x....184 = -31
 CNS...73: +1 x....178 -1 x....179 = -145
 CNS...74: +1 x....165 -1 x....166 -1 x....167 +1 x....168 +1 x....176 -1 x....177 -1 x....178 +1 x....179
  = -24
 CNS...75: +1 x....163 -1 x....164 -1 x....165 +1 x....166 -1 x....176 +1 x....177 = -156
 CNS...76: +1 x....161 -1 x....162 -1 x....163 +1 x....164 = -325
 CNS...77: +1 x....159 -1 x....160 -1 x....161 +1 x....162 = -100
 CNS...78: -1 x....158 -1 x....159 +1 x....160 = -106
 CNS...79: -1 x....014 -1 x....015 +1 x....016 +1 x....158 = +0
 CNS...80: -1 x....013 +1 x....014 +1 x....172 = +0
 CNS...81: +1 x....171 -1 x....172 -1 x....173 +1 x....174 = +0
 CNS...82: +1 x....169 -1 x....170 -1 x....171 = -38
 CNS...83: +1 x....167 -1 x....168 -1 x....169 +1 x....170 = -49
 CNS...84: +1 x....173 -1 x....174 -1 x....175 +1 x....182 = +0
 CNS...85: +1 x....180 -1 x....181 -1 x....182 = -50
 CNS...86: +1 x....152 -1 x....153 +1 x....175 = +0
 CNS...87: +1 x....011 -1 x....012 +1 x....153 = +0
 CNS...88: +1 x....012 +1 x....013 -1 x....189 = +0
 CNS...89: +1 x....188 +1 x....189 +1 x....190 = +14505
 TREE..01: +1 y....188 <= +1
 TREE..02: +1 y....001 +1 y....003 <= +1
 TREE..03: +1 y....019 +1 y....021 +1 y....038 <= +1
 TREE..04: +1 y....002 +1 y....004 <= +1
 TREE..05: +1 y....037 +1 y....040 <= +1
 TREE..06: +1 y....020 +1 y....023 <= +1
 TREE..07: +1 y....022 +1 y....025 <= +1
 TREE..08: +1 y....024 +1 y....027 <= +1
 TREE..09: +1 y....026 +1 y....029 +1 y....055 <= +1
 TREE..10: +1 y....028 +1 y....031 <= +1
 TREE..11: +1 y....030 +1 y....033 <= +1
 TREE..12: +1 y....032 +1 y....034 <= +1
 TREE..13: +1 y....035 +1 y....036 <= +1
 TREE..14: +1 y....009 +1 y....010 <= +1
 TREE..15: +1 y....039 +1 y....042 +1 y....043 <= +1
 TREE..16: +1 y....061 +1 y....064 <= +1
 TREE..17: +1 y....041 +1 y....045 +1 y....062 <= +1
 TREE..18: +1 y....063 +1 y....066 <= +1
 TREE..19: +1 y....065 +1 y....068 <= +1
 TREE..20: +1 y....067 +1 y....070 <= +1
 TREE..21: +1 y....069 +1 y....071 +1 y....073 <= +1
 TREE..22: +1 y....048 +1 y....050 +1 y....056 +1 y....072 <= +1
 TREE..23: +1 y....046 +1 y....049 <= +1
 TREE..24: +1 y....044 +1 y....047 <= +1
 TREE..25: +1 y....053 +1 y....054 <= +1
 TREE..26: +1 y....051 +1 y....052 <= +1
 TREE..27: +1 y....059 +1 y....060 <= +1
 TREE..28: +1 y....057 +1 y....058 +1 y....157 <= +1
 TREE..29: +1 y....155 +1 y....156 <= +1
 TREE..30: +1 y....011 <= +1
 TREE..31: +1 y....005 +1 y....006 +1 y....195 <= +1
 TREE..32: +1 y....085 +1 y....086 +1 y....194 <= +1
 TREE..33: +1 y....083 +1 y....084 +1 y....193 <= +1
 TREE..34: +1 y....080 +1 y....081 +1 y....082 +1 y....102 <= +1
 TREE..35: +1 y....078 +1 y....079 <= +1
 TREE..36: +1 y....075 +1 y....077 +1 y....087 <= +1
 TREE..37: +1 y....074 +1 y....076 <= +1
 TREE..38: +1 y....100 +1 y....101 <= +1
 TREE..39: +1 y....098 +1 y....099 <= +1
 TREE..40: +1 y....096 +1 y....097 <= +1
 TREE..41: +1 y....094 +1 y....095 <= +1
 TREE..42: +1 y....091 +1 y....093 <= +1
 TREE..43: +1 y....090 +1 y....092 <= +1
 TREE..44: +1 y....088 +1 y....089 +1 y....103 <= +1
 TREE..45: +1 y....104 +1 y....105 <= +1
 TREE..46: +1 y....106 +1 y....107 +1 y....143 <= +1
 TREE..47: +1 y....108 +1 y....109 <= +1
 TREE..48: +1 y....110 +1 y....111 <= +1
 TREE..49: +1 y....112 +1 y....113 <= +1
 TREE..50: +1 y....114 +1 y....115 <= +1
 TREE..51: +1 y....116 +1 y....117 <= +1
 TREE..52: +1 y....118 +1 y....119 +1 y....122 +1 y....123 <= +1
 TREE..53: +1 y....124 +1 y....125 +1 y....126 +1 y....127 <= +1
 TREE..54: +1 y....128 +1 y....129 +1 y....130 +1 y....131 <= +1
 TREE..55: +1 y....132 +1 y....133 +1 y....134 +1 y....135 <= +1
 TREE..56: +1 y....136 +1 y....137 +1 y....138 <= +1
 TREE..57: +1 y....139 +1 y....140 <= +1
 TREE..58: +1 y....141 +1 y....142 <= +1
 TREE..59: +1 y....007 <= +1
 TREE..60: +1 y....008 <= +1
 TREE..61: +1 y....190 <= +1
 TREE..62: +1 y....016 +1 y....017 +1 y....018 <= +1
 TREE..63: +1 y....120 +1 y....121 <= +1
 TREE..64: +1 y....144 +1 y....145 <= +1
 TREE..65: +1 y....146 +1 y....147 <= +1
 TREE..66: +1 y....148 +1 y....149 <= +1
 TREE..67: +1 y....150 +1 y....192 <= +1
 TREE..68: +1 y....151 +1 y....154 +1 y....191 <= +1
 TREE..69: +1 y....152 <= +1
 TREE..70: +1 y....186 +1 y....187 <= +1
 TREE..71: +1 y....183 +1 y....185 <= +1
 TREE..72: +1 y....180 +1 y....184 <= +1
 TREE..73: +1 y....179 <= +1
 TREE..74: +1 y....166 +1 y....167 +1 y....177 +1 y....178 <= +1
 TREE..75: +1 y....164 +1 y....165 +1 y....176 <= +1
 TREE..76: +1 y....162 +1 y....163 <= +1
 TREE..77: +1 y....160 +1 y....161 <= +1
 TREE..78: +1 y....158 +1 y....159 <= +1
 TREE..79: +1 y....014 +1 y....015 <= +1
 TREE..80: +1 y....013 <= +1
 TREE..81: +1 y....172 +1 y....173 <= +1
 TREE..82: +1 y....170 +1 y....171 <= +1
 TREE..83: +1 y....168 +1 y....169 <= +1
 TREE..84: +1 y....174 +1 y....175 <= +1
 TREE..85: +1 y....181 +1 y....182 <= +1
 TREE..86: +1 y....153 <= +1
 TREE..87: +1 y....012 <= +1
 TREE..88: +1 y....189 <= +1
 UC...001: +1 x....001 -10754 y....001 <= +0
 UC...002: +1 x....002 -10754 y....002 <= +0
 UC...003: +1 x....003 -10754 y....003 <= +0
 UC...004: +1 x....004 -10754 y....004 <= +0
 UC...005: +1 x....005 -10754 y....005 <= +0
 UC...006: +1 x....006 -10754 y....006 <= +0
 UC...007: +1 x....007 -12972 y....007 <= +0
 UC...008: +1 x....008 -14203 y....008 <= +0
 UC...009: +1 x....009 -10754 y....009 <= +0
 UC...010: +1 x....010 -10754 y....010 <= +0
 UC...011: +1 x....011 -10754 y....011 <= +0
 UC...012: +1 x....012 -11999 y....012 <= +0
 UC...013: +1 x....013 -14505 y....013 <= +0
 UC...014: +1 x....014 -14203 y....014 <= +0
 UC...015: +1 x....015 -14203 y....015 <= +0
 UC...016: +1 x....016 -14203 y....016 <= +0
 UC...017: +1 x....017 -4500 y....017 <= +0
 UC...018: +1 x....018 -14203 y....018 <= +0
 UC...019: +1 x....019 -10754 y....019 <= +0
 UC...020: +1 x....020 -10754 y....020 <= +0
 UC...021: +1 x....021 -10754 y....021 <= +0
 UC...022: +1 x....022 -10754 y....022 <= +0
 UC...023: +1 x....023 -10754 y....023 <= +0
 UC...024: +1 x....024 -56 y....024 <= +0
 UC...025: +1 x....025 -10754 y....025 <= +0
 UC...026: +1 x....026 -10754 y....026 <= +0
 UC...027: +1 x....027 -10754 y....027 <= +0
 UC...028: +1 x....028 -10754 y....028 <= +0
 UC...029: +1 x....029 -10754 y....029 <= +0
 UC...030: +1 x....030 -10754 y....030 <= +0
 UC...031: +1 x....031 -10754 y....031 <= +0
 UC...032: +1 x....032 -10754 y....032 <= +0
 UC...033: +1 x....033 -10754 y....033 <= +0
 UC...034: +1 x....034 -10754 y....034 <= +0
 UC...035: +1 x....035 -10754 y....035 <= +0
 UC...036: +1 x....036 -10754 y....036 <= +0
 UC...037: +1 x....037 -10754 y....037 <= +0
 UC...038: +1 x....038 -10754 y....038 <= +0
 UC...039: +1 x....039 -10754 y....039 <= +0
 UC...040: +1 x....040 -10754 y....040 <= +0
 UC...041: +1 x....041 -10754 y....041 <= +0
 UC...042: +1 x....042 -10754 y....042 <= +0
 UC...043: +1 x....043 -10754 y....043 <= +0
 UC...044: +1 x....044 -10754 y....044 <= +0
 UC...045: +1 x....045 -10754 y....045 <= +0
 UC...046: +1 x....046 -10754 y....046 <= +0
 UC...047: +1 x....047 -10754 y....047 <= +0
 UC...048: +1 x....048 -10754 y....048 <= +0
 UC...049: +1 x....049 -10754 y....049 <= +0
 UC...050: +1 x....050 -10754 y....050 <= +0
 UC...051: +1 x....051 -10754 y....051 <= +0
 UC...052: +1 x....052 -10754 y....052 <= +0
 UC...053: +1 x....053 -10754 y....053 <= +0
 UC...054: +1 x....054 -10754 y....054 <= +0
 UC...055: +1 x....055 -10754 y....055 <= +0
 UC...056: +1 x....056 -10754 y....056 <= +0
 UC...057: +1 x....057 -10754 y....057 <= +0
 UC...058: +1 x....058 -10754 y....058 <= +0
 UC...059: +1 x....059 -10754 y....059 <= +0
 UC...060: +1 x....060 -10754 y....060 <= +0
 UC...061: +1 x....061 -65 y....061 <= +0
 UC...062: +1 x....062 -10754 y....062 <= +0
 UC...063: +1 x....063 -10754 y....063 <= +0
 UC...064: +1 x....064 -10754 y....064 <= +0
 UC...065: +1 x....065 -10754 y....065 <= +0
 UC...066: +1 x....066 -10754 y....066 <= +0
 UC...067: +1 x....067 -10754 y....067 <= +0
 UC...068: +1 x....068 -10754 y....068 <= +0
 UC...069: +1 x....069 -10754 y....069 <= +0
 UC...070: +1 x....070 -10754 y....070 <= +0
 UC...071: +1 x....071 -10754 y....071 <= +0
 UC...072: +1 x....072 -10754 y....072 <= +0
 UC...073: +1 x....073 -10754 y....073 <= +0
 UC...074: +1 x....074 -10754 y....074 <= +0
 UC...075: +1 x....075 -10754 y....075 <= +0
 UC...076: +1 x....076 -10754 y....076 <= +0
 UC...077: +1 x....077 -10754 y....077 <= +0
 UC...078: +1 x....078 -10754 y....078 <= +0
 UC...079: +1 x....079 -10754 y....079 <= +0
 UC...080: +1 x....080 -10754 y....080 <= +0
 UC...081: +1 x....081 -6000 y....081 <= +0
 UC...082: +1 x....082 -10754 y....082 <= +0
 UC...083: +1 x....083 -5000 y....083 <= +0
 UC...084: +1 x....084 -10754 y....084 <= +0
 UC...085: +1 x....085 -18000 y....085 <= +0
 UC...086: +1 x....086 -10754 y....086 <= +0
 UC...087: +1 x....087 -10754 y....087 <= +0
 UC...088: +1 x....088 -10754 y....088 <= +0
 UC...089: +1 x....089 -10754 y....089 <= +0
 UC...090: +1 x....090 -10754 y....090 <= +0
 UC...091: +1 x....091 -10754 y....091 <= +0
 UC...092: +1 x....092 -10754 y....092 <= +0
 UC...093: +1 x....093 -10754 y....093 <= +0
 UC...094: +1 x....094 -10754 y....094 <= +0
 UC...095: +1 x....095 -10754 y....095 <= +0
 UC...096: +1 x....096 -10754 y....096 <= +0
 UC...097: +1 x....097 -10754 y....097 <= +0
 UC...098: +1 x....098 -10754 y....098 <= +0
 UC...099: +1 x....099 -10754 y....099 <= +0
 UC...100: +1 x....100 -10754 y....100 <= +0
 UC...101: +1 x....101 -10754 y....101 <= +0
 UC...102: +1 x....102 -10754 y....102 <= +0
 UC...103: +1 x....103 -10754 y....103 <= +0
 UC...104: +1 x....104 -10754 y....104 <= +0
 UC...105: +1 x....105 -10754 y....105 <= +0
 UC...106: +1 x....106 -10754 y....106 <= +0
 UC...107: +1 x....107 -10754 y....107 <= +0
 UC...108: +1 x....108 -10754 y....108 <= +0
 UC...109: +1 x....109 -10754 y....109 <= +0
 UC...110: +1 x....110 -10754 y....110 <= +0
 UC...111: +1 x....111 -10754 y....111 <= +0
 UC...112: +1 x....112 -10754 y....112 <= +0
 UC...113: +1 x....113 -10754 y....113 <= +0
 UC...114: +1 x....114 -10754 y....114 <= +0
 UC...115: +1 x....115 -10754 y....115 <= +0
 UC...116: +1 x....116 -5000 y....116 <= +0
 UC...117: +1 x....117 -11013 y....117 <= +0
 UC...118: +1 x....118 -3750 y....118 <= +0
 UC...119: +1 x....119 -12972 y....119 <= +0
 UC...120: +1 x....120 -2400 y....120 <= +0
 UC...121: +1 x....121 -13177 y....121 <= +0
 UC...122: +1 x....122 -3571.428571 y....122 <= +0
 UC...123: +1 x....123 -12972 y....123 <= +0
 UC...124: +1 x....124 -3571.428571 y....124 <= +0
 UC...125: +1 x....125 -12972 y....125 <= +0
 UC...126: +1 x....126 -5000 y....126 <= +0
 UC...127: +1 x....127 -12972 y....127 <= +0
 UC...128: +1 x....128 -5000 y....128 <= +0
 UC...129: +1 x....129 -12972 y....129 <= +0
 UC...130: +1 x....130 -6000 y....130 <= +0
 UC...131: +1 x....131 -12972 y....131 <= +0
 UC...132: +1 x....132 -6000 y....132 <= +0
 UC...133: +1 x....133 -12972 y....133 <= +0
 UC...134: +1 x....134 -4000 y....134 <= +0
 UC...135: +1 x....135 -12972 y....135 <= +0
 UC...136: +1 x....136 -4000 y....136 <= +0
 UC...137: +1 x....137 -12972 y....137 <= +0
 UC...138: +1 x....138 -746 y....138 <= +0
 UC...139: +1 x....139 -12972 y....139 <= +0
 UC...140: +1 x....140 -12972 y....140 <= +0
 UC...141: +1 x....141 -12972 y....141 <= +0
 UC...142: +1 x....142 -12972 y....142 <= +0
 UC...143: +1 x....143 -10754 y....143 <= +0
 UC...144: +1 x....144 -10754 y....144 <= +0
 UC...145: +1 x....145 -10754 y....145 <= +0
 UC...146: +1 x....146 -10754 y....146 <= +0
 UC...147: +1 x....147 -10754 y....147 <= +0
 UC...148: +1 x....148 -10754 y....148 <= +0
 UC...149: +1 x....149 -10754 y....149 <= +0
 UC...150: +1 x....150 -10754 y....150 <= +0
 UC...151: +1 x....151 -394 y....151 <= +0
 UC...152: +1 x....152 -11056 y....152 <= +0
 UC...153: +1 x....153 -11999 y....153 <= +0
 UC...154: +1 x....154 -254 y....154 <= +0
 UC...155: +1 x....155 -10754 y....155 <= +0
 UC...156: +1 x....156 -10754 y....156 <= +0
 UC...157: +1 x....157 -10754 y....157 <= +0
 UC...158: +1 x....158 -943 y....158 <= +0
 UC...159: +1 x....159 -943 y....159 <= +0
 UC...160: +1 x....160 -943 y....160 <= +0
 UC...161: +1 x....161 -943 y....161 <= +0
 UC...162: +1 x....162 -943 y....162 <= +0
 UC...163: +1 x....163 -943 y....163 <= +0
 UC...164: +1 x....164 -943 y....164 <= +0
 UC...165: +1 x....165 -943 y....165 <= +0
 UC...166: +1 x....166 -943 y....166 <= +0
 UC...167: +1 x....167 -943 y....167 <= +0
 UC...168: +1 x....168 -943 y....168 <= +0
 UC...169: +1 x....169 -943 y....169 <= +0
 UC...170: +1 x....170 -943 y....170 <= +0
 UC...171: +1 x....171 -943 y....171 <= +0
 UC...172: +1 x....172 -1245 y....172 <= +0
 UC...173: +1 x....173 -1245 y....173 <= +0
 UC...174: +1 x....174 -1245 y....174 <= +0
 UC...175: +1 x....175 -1245 y....175 <= +0
 UC...176: +1 x....176 -943 y....176 <= +0
 UC...177: +1 x....177 -943 y....177 <= +0
 UC...178: +1 x....178 -943 y....178 <= +0
 UC...179: +1 x....179 -943 y....179 <= +0
 UC...180: +1 x....180 -302 y....180 <= +0
 UC...181: +1 x....181 -302 y....181 <= +0
 UC...182: +1 x....182 -302 y....182 <= +0
 UC...183: +1 x....183 -302 y....183 <= +0
 UC...184: +1 x....184 -302 y....184 <= +0
 UC...185: +1 x....185 -302 y....185 <= +0
 UC...186: +1 x....186 -302 y....186 <= +0
 UC...187: +1 x....187 -302 y....187 <= +0
 UC...188: +1 x....188 -10754 y....188 <= +0
 UC...189: +1 x....189 -14505 y....189 <= +0
 UC...190: +1 x....190 -14203 y....190 <= +0
 UC...191: +1 x....191 -10754 y....191 <= +0
 UC...192: +1 x....192 -10754 y....192 <= +0
 UC...193: +1 x....193 -10754 y....193 <= +0
 UC...194: +1 x....194 -10754 y....194 <= +0
 UC...195: +1 x....195 -10754 y....195 <= +0
Bounds
 0 <= y....001 <= 1
 0 <= y....002 <= 1
 0 <= y....003 <= 1
 0 <= y....004 <= 1
 0 <= y....005 <= 1
 0 <= y....006 <= 1
 0 <= y....007 <= 1
 0 <= y....008 <= 1
 0 <= y....009 <= 1
 0 <= y....010 <= 1
 0 <= y....011 <= 1
 0 <= y....012 <= 1
 0 <= y....013 <= 1
 0 <= y....014 <= 1
 0 <= y....015 <= 1
 0 <= y....016 <= 1
 0 <= y....017 <= 1
 0 <= y....018 <= 1
 0 <= y....019 <= 1
 0 <= y....020 <= 1
 0 <= y....021 <= 1
 0 <= y....022 <= 1
 0 <= y....023 <= 1
 0 <= y....024 <= 1
 0 <= y....025 <= 1
 0 <= y....026 <= 1
 0 <= y....027 <= 1
 0 <= y....028 <= 1
 0 <= y....029 <= 1
 0 <= y....030 <= 1
 0 <= y....031 <= 1
 0 <= y....032 <= 1
 0 <= y....033 <= 1
 0 <= y....034 <= 1
 0 <= y....035 <= 1
 0 <= y....036 <= 1
 0 <= y....037 <= 1
 0 <= y....038 <= 1
 0 <= y....039 <= 1
 0 <= y....040 <= 1
 0 <= y....041 <= 1
 0 <= y....042 <= 1
 0 <= y....043 <= 1
 0 <= y....044 <= 1
 0 <= y....045 <= 1
 0 <= y....046 <= 1
 0 <= y....047 <= 1
 0 <= y....048 <= 1
 0 <= y....049 <= 1
 0 <= y....050 <= 1
 0 <= y....051 <= 1
 0 <= y....052 <= 1
 0 <= y....053 <= 1
 0 <= y....054 <= 1
 0 <= y....055 <= 1
 0 <= y....056 <= 1
 0 <= y....057 <= 1
 0 <= y....058 <= 1
 0 <= y....059 <= 1
 0 <= y....060 <= 1
 0 <= y....061 <= 1
 0 <= y....062 <= 1
 0 <= y....063 <= 1
 0 <= y....064 <= 1
 0 <= y....065 <= 1
 0 <= y....066 <= 1
 0 <= y....067 <= 1
 0 <= y....068 <= 1
 0 <= y....069 <= 1
 0 <= y....070 <= 1
 0 <= y....071 <= 1
 0 <= y....072 <= 1
 0 <= y....073 <= 1
 0 <= y....074 <= 1
 0 <= y....075 <= 1
 0 <= y....076 <= 1
 0 <= y....077 <= 1
 0 <= y....078 <= 1
 0 <= y....079 <= 1
 0 <= y....080 <= 1
 0 <= y....081 <= 1
 0 <= y....082 <= 1
 0 <= y....083 <= 1
 0 <= y....084 <= 1
 0 <= y....085 <= 1
 0 <= y....086 <= 1
 0 <= y....087 <= 1
 0 <= y....088 <= 1
 0 <= y....089 <= 1
 0 <= y....090 <= 1
 0 <= y....091 <= 1
 0 <= y....092 <= 1
 0 <= y....093 <= 1
 0 <= y....094 <= 1
 0 <= y....095 <= 1
 0 <= y....096 <= 1
 0 <= y....097 <= 1
 0 <= y....098 <= 1
 0 <= y....099 <= 1
 0 <= y....100 <= 1
 0 <= y....101 <= 1
 0 <= y....102 <= 1
 0 <= y....103 <= 1
 0 <= y....104 <= 1
 0 <= y....105 <= 1
 0 <= y....106 <= 1
 0 <= y....107 <= 1
 0 <= y....108 <= 1
 0 <= y....109 <= 1
 0 <= y....110 <= 1
 0 <= y....111 <= 1
 0 <= y....112 <= 1
 0 <= y....113 <= 1
 0 <= y....114 <= 1
 0 <= y....115 <= 1
 0 <= y....116 <= 1
 0 <= y....117 <= 1
 0 <= y....118 <= 1
 0 <= y....119 <= 1
 0 <= y....120 <= 1
 0 <= y....121 <= 1
 0 <= y....122 <= 1
 0 <= y....123 <= 1
 0 <= y....124 <= 1
 0 <= y....125 <= 1
 0 <= y....126 <= 1
 0 <= y....127 <= 1
 0 <= y....128 <= 1
 0 <= y....129 <= 1
 0 <= y....130 <= 1
 0 <= y....131 <= 1
 0 <= y....132 <= 1
 0 <= y....133 <= 1
 0 <= y....134 <= 1
 0 <= y....135 <= 1
 0 <= y....136 <= 1
 0 <= y....137 <= 1
 0 <= y....138 <= 1
 0 <= y....139 <= 1
 0 <= y....140 <= 1
 0 <= y....141 <= 1
 0 <= y....142 <= 1
 0 <= y....143 <= 1
 0 <= y....144 <= 1
 0 <= y....145 <= 1
 0 <= y....146 <= 1
 0 <= y....147 <= 1
 0 <= y....148 <= 1
 0 <= y....149 <= 1
 0 <= y....150 <= 1
 0 <= y....151 <= 1
 0 <= y....152 <= 1
 0 <= y....153 <= 1
 0 <= y....154 <= 1
 0 <= y....155 <= 1
 0 <= y....156 <= 1
 0 <= y....157 <= 1
 0 <= y....158 <= 1
 0 <= y....159 <= 1
 0 <= y....160 <= 1
 0 <= y....161 <= 1
 0 <= y....162 <= 1
 0 <= y....163 <= 1
 0 <= y....164 <= 1
 0 <= y....165 <= 1
 0 <= y....166 <= 1
 0 <= y....167 <= 1
 0 <= y....168 <= 1
 0 <= y....169 <= 1
 0 <= y....170 <= 1
 0 <= y....171 <= 1
 0 <= y....172 <= 1
 0 <= y....173 <= 1
 0 <= y....174 <= 1
 0 <= y....175 <= 1
 0 <= y....176 <= 1
 0 <= y....177 <= 1
 0 <= y....178 <= 1
 0 <= y....179 <= 1
 0 <= y....180 <= 1
 0 <= y....181 <= 1
 0 <= y....182 <= 1
 0 <= y....183 <= 1
 0 <= y....184 <= 1
 0 <= y....185 <= 1
 0 <= y....186 <= 1
 0 <= y....187 <= 1
 0 <= y....188 <= 1
 0 <= y....189 <= 1
 0 <= y....190 <= 1
 0 <= y....191 <= 1
 0 <= y....192 <= 1
 0 <= y....193 <= 1
 0 <= y....194 <= 1
 0 <= y....195 <= 1
 0 <= x....194 <= 10754
 0 <= x....001 <= 10754
 0 <= x....002 <= 10754
 0 <= x....003 <= 10754
 0 <= x....004 <= 10754
 0 <= x....005 <= 10754
 0 <= x....006 <= 10754
 0 <= x....007 <= 12972
 0 <= x....008 <= 14203
 0 <= x....009 <= 10754
 0 <= x....010 <= 10754
 0 <= x....011 <= 10754
 0 <= x....012 <= 11999
 0 <= x....013 <= 14505
 0 <= x....014 <= 14203
 0 <= x....015 <= 14203
 0 <= x....016 <= 14203
 0 <= x....017 <= 4500
 0 <= x....018 <= 14203
 0 <= x....019 <= 10754
 0 <= x....020 <= 10754
 0 <= x....021 <= 10754
 0 <= x....022 <= 10754
 0 <= x....023 <= 10754
 0 <= x....024 <= 56
 0 <= x....025 <= 10754
 0 <= x....026 <= 10754
 0 <= x....027 <= 10754
 0 <= x....028 <= 10754
 0 <= x....029 <= 10754
 0 <= x....030 <= 10754
 0 <= x....031 <= 10754
 0 <= x....032 <= 10754
 0 <= x....033 <= 10754
 0 <= x....034 <= 10754
 0 <= x....035 <= 10754
 0 <= x....036 <= 10754
 0 <= x....037 <= 10754
 0 <= x....038 <= 10754
 0 <= x....039 <= 10754
 0 <= x....040 <= 10754
 0 <= x....041 <= 10754
 0 <= x....042 <= 10754
 0 <= x....043 <= 10754
 0 <= x....044 <= 10754
 0 <= x....045 <= 10754
 0 <= x....046 <= 10754
 0 <= x....047 <= 10754
 0 <= x....048 <= 10754
 0 <= x....049 <= 10754
 0 <= x....050 <= 10754
 0 <= x....051 <= 10754
 0 <= x....052 <= 10754
 0 <= x....053 <= 10754
 0 <= x....054 <= 10754
 0 <= x....055 <= 10754
 0 <= x....056 <= 10754
 0 <= x....057 <= 10754
 0 <= x....058 <= 10754
 0 <= x....059 <= 10754
 0 <= x....060 <= 10754
 0 <= x....061 <= 65
 0 <= x....062 <= 10754
 0 <= x....063 <= 10754
 0 <= x....064 <= 10754
 0 <= x....065 <= 10754
 0 <= x....066 <= 10754
 0 <= x....067 <= 10754
 0 <= x....068 <= 10754
 0 <= x....069 <= 10754
 0 <= x....070 <= 10754
 0 <= x....071 <= 10754
 0 <= x....072 <= 10754
 0 <= x....073 <= 10754
 0 <= x....074 <= 10754
 0 <= x....075 <= 10754
 0 <= x....076 <= 10754
 0 <= x....077 <= 10754
 0 <= x....078 <= 10754
 0 <= x....079 <= 10754
 0 <= x....080 <= 10754
 0 <= x....081 <= 6000
 0 <= x....082 <= 10754
 0 <= x....083 <= 5000
 0 <= x....084 <= 10754
 0 <= x....085 <= 18000
 0 <= x....086 <= 10754
 0 <= x....087 <= 10754
 0 <= x....088 <= 10754
 0 <= x....089 <= 10754
 0 <= x....090 <= 10754
 0 <= x....091 <= 10754
 0 <= x....092 <= 10754
 0 <= x....093 <= 10754
 0 <= x....094 <= 10754
 0 <= x....095 <= 10754
 0 <= x....096 <= 10754
 0 <= x....097 <= 10754
 0 <= x....098 <= 10754
 0 <= x....099 <= 10754
 0 <= x....100 <= 10754
 0 <= x....101 <= 10754
 0 <= x....102 <= 10754
 0 <= x....103 <= 10754
 0 <= x....104 <= 10754
 0 <= x....105 <= 10754
 0 <= x....106 <= 10754
 0 <= x....107 <= 10754
 0 <= x....108 <= 10754
 0 <= x....109 <= 10754
 0 <= x....110 <= 10754
 0 <= x....111 <= 10754
 0 <= x....112 <= 10754
 0 <= x....113 <= 10754
 0 <= x....114 <= 10754
 0 <= x....115 <= 10754
 0 <= x....116 <= 5000
 0 <= x....117 <= 11013
 0 <= x....118 <= 3750
 0 <= x....119 <= 12972
 0 <= x....120 <= 2400
 0 <= x....121 <= 13177
 0 <= x....122 <= 3571.428571
 0 <= x....123 <= 12972
 0 <= x....124 <= 3571.428571
 0 <= x....125 <= 12972
 0 <= x....126 <= 5000
 0 <= x....127 <= 12972
 0 <= x....128 <= 5000
 0 <= x....129 <= 12972
 0 <= x....130 <= 6000
 0 <= x....131 <= 12972
 0 <= x....132 <= 6000
 0 <= x....133 <= 12972
 0 <= x....134 <= 4000
 0 <= x....135 <= 12972
 0 <= x....136 <= 4000
 0 <= x....137 <= 12972
 0 <= x....138 <= 746
 0 <= x....139 <= 12972
 0 <= x....140 <= 12972
 0 <= x....141 <= 12972
 0 <= x....142 <= 12972
 0 <= x....143 <= 10754
 0 <= x....144 <= 10754
 0 <= x....145 <= 10754
 0 <= x....146 <= 10754
 0 <= x....147 <= 10754
 0 <= x....148 <= 10754
 0 <= x....149 <= 10754
 0 <= x....150 <= 10754
 0 <= x....151 <= 394
 0 <= x....152 <= 11056
 0 <= x....153 <= 11999
 0 <= x....154 <= 254
 0 <= x....155 <= 10754
 0 <= x....156 <= 10754
 0 <= x....157 <= 10754
 0 <= x....158 <= 943
 0 <= x....159 <= 943
 0 <= x....160 <= 943
 0 <= x....161 <= 943
 0 <= x....162 <= 943
 0 <= x....163 <= 943
 0 <= x....164 <= 943
 0 <= x....165 <= 943
 0 <= x....166 <= 943
 0 <= x....167 <= 943
 0 <= x....168 <= 943
 0 <= x....169 <= 943
 0 <= x....170 <= 943
 0 <= x....171 <= 943
 0 <= x....172 <= 1245
 0 <= x....173 <= 1245
 0 <= x....174 <= 1245
 0 <= x....175 <= 1245
 0 <= x....176 <= 943
 0 <= x....177 <= 943
 0 <= x....178 <= 943
 0 <= x....179 <= 943
 0 <= x....180 <= 302
 0 <= x....181 <= 302
 0 <= x....182 <= 302
 0 <= x....183 <= 302
 0 <= x....184 <= 302
 0 <= x....185 <= 302
 0 <= x....186 <= 302
 0 <= x....187 <= 302
 0 <= x....188 <= 10754
 0 <= x....189 <= 14505
 0 <= x....190 <= 14203
 0 <= x....191 <= 10754
 0 <= x....192 <= 10754
 0 <= x....193 <= 10754
 0 <= x....195 <= 10754
Binaries
 y....001 y....002 y....003 y....004 y....005 y....006 y....007 y....008 y....009 y....010 y....011 y....012
 y....013 y....014 y....015 y....016 y....017 y....018 y....019 y....020 y....021 y....022 y....023 y....024
 y....025 y....026 y....027 y....028 y....029 y....030 y....031 y....032 y....033 y....034 y....035 y....036
 y....037 y....038 y....039 y....040 y....041 y....042 y....043 y....044 y....045 y....046 y....047 y....048
 y....049 y....050 y....051 y....052 y....053 y....054 y....055 y....056 y....057 y....058 y....059 y....060
 y....061 y....062 y....063 y....064 y....065 y....066 y....067 y....068 y....069 y....070 y....071 y....072
 y....073 y....074 y....075 y....076 y....077 y....078 y....079 y....080 y....081 y....082 y....083 y....084
 y....085 y....086 y....087 y....088 y....089 y....090 y....091 y....092 y....093 y....094 y....095 y....096
 y....097 y....098 y....099 y....100 y....101 y....102 y....103 y....104 y....105 y....106 y....107 y....108
 y....109 y....110 y....111 y....112 y....113 y....114 y....115 y....116 y....117 y....118 y....119 y....120
 y....121 y....122 y....123 y....124 y....125 y....126 y....127 y....128 y....129 y....130 y....131 y....132
 y....133 y....134 y....135 y....136 y....137 y....138 y....139 y....140 y....141 y....142 y....143 y....144
 y....145 y....146 y....147 y....148 y....149 y....150 y....151 y....152 y....153 y....154 y....155 y....156
 y....157 y....158 y....159 y....160 y....161 y....162 y....163 y....164 y....165 y....166 y....167 y....168
 y....169 y....170 y....171 y....172 y....173 y....174 y....175 y....176 y....177 y....178 y....179 y....180
 y....181 y....182 y....183 y....184 y....185 y....186 y....187 y....188 y....189 y....190 y....191 y....192
 y....193 y....194 y....195
End
